40 40 40
50
4 17 28
33 24 35
1 9 26
17 30 8
25 29 31
25 25 4
15 23 31
3 27 14
33 24 10
32 5 30
22 19 22
3 29 18
16 34 29
21 8 13
29 21 31
30 26 21
6 14 13
22 21 28
29 30 5
8 27 26
16 32 19
31 31 27
19 2 24
29 1 27
34 30 19
20 34 8
14 1 19
5 28 35
14 21 13
17 35 31
34 18 23
14 31 15
17 25 18
17 22 2
5 26 20
2 21 20
30 34 24
16 31 12
28 31 28
24 22 30
32 20 10
23 10 11
23 26 5
27 15 17
11 20 15
23 9 30
8 18 8
35 6 28
6 19 7
18 15 27
